\* row_knapsack_problem *\
Minimize
knapsack: 18 row_10 + 18 row_12 + 18 row_14 + 17 row_16 + 18 row_17
 + 18 row_18 + 16 row_19 + 17 row_22 + 18 row_24 + 18 row_25 + 18 row_27
 + 18 row_29 + 19 row_3 + 18 row_30 + 18 row_32 + 17 row_34 + 18 row_35
 + 18 row_37 + 17 row_39 + 18 row_40 + 18 row_41 + 17 row_42 + 18 row_44
 + 17 row_47 + 18 row_6
Subject To
sensitivity: 2 row_10 + 2 row_12 + 2 row_14 + 3 row_16 + 2 row_17 + 2 row_18
 + 4 row_19 + 3 row_22 + 2 row_24 + 2 row_25 + 2 row_27 + 2 row_29 + row_3
 + 2 row_30 + 2 row_32 + 3 row_34 + 2 row_35 + 2 row_37 + 3 row_39 + 2 row_40
 + 2 row_41 + 3 row_42 + 2 row_44 + 3 row_47 + 2 row_6 >= 160.8
Bounds
 row_10 <= 1
 row_12 <= 1
 row_14 <= 1
 row_16 <= 1
 row_17 <= 1
 row_18 <= 1
 row_19 <= 1
 row_22 <= 1
 row_24 <= 1
 row_25 <= 1
 row_27 <= 1
 row_29 <= 1
 row_3 <= 1
 row_30 <= 1
 row_32 <= 1
 row_34 <= 1
 row_35 <= 1
 row_37 <= 1
 row_39 <= 1
 row_40 <= 1
 row_41 <= 1
 row_42 <= 1
 row_44 <= 1
 row_47 <= 1
 row_6 <= 1
End
